*SENSE:Maximize
NAME          MODEL
ROWS
 N  OBJ
 L  C0000000
 L  C0000001
COLUMNS
    X0000001  C0000000   1.000000000000e+00
    X0000001  C0000001   5.000000000000e-01
    X0000001  OBJ        1.000000000000e+02
    X0000001  C0000000   1.000000000000e+00
    X0000001  C0000001   5.000000000000e-01
    X0000001  OBJ        5.000000000000e+01
RHS
    RHS       C0000000   3.000000000000e+01
    RHS       C0000001   5.000000000000e+00
BOUNDS
ENDATA
